0 173 199
1 143 402
2 275 484
3 18 575
4 130 323
5 360 145
6 213 154
7 42 15
8 36 86
9 110 362
10 229 494
11 398 161
12 366 442
13 47 774
14 86 186
15 405 11
16 592 380
17 83 749
18 119 792
19 496 534
20 597 571
21 92 621
22 365 171
23 346 17
24 126 297
25 118 137
26 106 416
27 147 694
28 578 240
29 248 122
30 180 203
31 149 452
32 6 612
33 515 245
34 47 106
35 727 620
36 279 122
37 732 224
38 174 143
39 99 503
40 646 72
41 159 94
42 38 382
43 79 6